Rodando pra 1h

Optimize a model with 360129 rows, 539210 columns and 19747059 nonzeros
Coefficient statistics:
  Matrix range    [1e+00, 1e+04]
  Objective range [2e-01, 2e-01]
  Bounds range    [1e+00, 1e+04]
  RHS range       [1e+00, 1e+04]
Presolve removed 1 rows and 1 columns (presolve time = 5s) ...
Presolve removed 3 rows and 3 columns (presolve time = 11s) ...
Presolve removed 3 rows and 3 columns (presolve time = 23s) ...
Presolve removed 6 rows and 6 columns (presolve time = 32s) ...
Presolve removed 6 rows and 6 columns (presolve time = 43s) ...
Presolve removed 6 rows and 6 columns (presolve time = 46s) ...
Presolve removed 6 rows and 6 columns (presolve time = 51s) ...
Presolve removed 6 rows and 6 columns (presolve time = 58s) ...
Presolve removed 6 rows and 6 columns (presolve time = 61s) ...
Presolve removed 6 rows and 6 columns (presolve time = 68s) ...
Presolve removed 6 rows and 6 columns (presolve time = 72s) ...
Presolve removed 6 rows and 6 columns (presolve time = 75s) ...
Presolve removed 6 rows and 6 columns (presolve time = 82s) ...
Presolve removed 6 rows and 6 columns (presolve time = 86s) ...
Presolve removed 6 rows and 6 columns (presolve time = 93s) ...
Presolve removed 6 rows and 6 columns (presolve time = 96s) ...
Presolve removed 6 rows and 6 columns (presolve time = 103s) ...
Presolve removed 6 rows and 6 columns (presolve time = 107s) ...
Presolve removed 6 rows and 6 columns (presolve time = 110s) ...
Presolve removed 6 rows and 6 columns (presolve time = 117s) ...
Presolve removed 6 rows and 6 columns (presolve time = 121s) ...
Presolve removed 6 rows and 6 columns (presolve time = 128s) ...
Presolve removed 6 rows and 6 columns (presolve time = 131s) ...
Presolve removed 6 rows and 6 columns (presolve time = 138s) ...
Presolve removed 6 rows and 6 columns (presolve time = 142s) ...
Presolve removed 6 rows and 6 columns (presolve time = 145s) ...
Presolve removed 6 rows and 6 columns (presolve time = 152s) ...
Presolve removed 6 rows and 6 columns (presolve time = 155s) ...
Presolve removed 6 rows and 6 columns (presolve time = 161s) ...
Presolve removed 6 rows and 6 columns (presolve time = 168s) ...
Presolve removed 6 rows and 6 columns (presolve time = 171s) ...
Presolve removed 6 rows and 6 columns (presolve time = 177s) ...
Presolve removed 6 rows and 6 columns (presolve time = 180s) ...
Presolve removed 6 rows and 6 columns (presolve time = 187s) ...
Presolve removed 6 rows and 6 columns (presolve time = 202s) ...
Presolve removed 6 rows and 6 columns (presolve time = 207s) ...
Presolve removed 6 rows and 6 columns (presolve time = 230s) ...
Presolve removed 6 rows and 6 columns
Presolve time: 229.60s
Presolved: 360123 rows, 539204 columns, 19747017 nonzeros
Variable types: 359400 continuous, 179804 integer (179800 binary)
Optimize a model with 360123 rows, 539204 columns and 19747017 nonzeros
Coefficient statistics:
  Matrix range    [1e+00, 1e+04]
  Objective range [2e-01, 2e-01]
  Bounds range    [1e+00, 1e+04]
  RHS range       [1e+00, 2e+04]
Presolve removed 0 rows and 0 columns (presolve time = 7s) ...
Presolve removed 0 rows and 0 columns (presolve time = 11s) ...
Presolve removed 0 rows and 0 columns (presolve time = 18s) ...
Presolved: 360123 rows, 539204 columns, 19747017 nonzeros


Root simplex log...

Iteration    Objective       Primal Inf.    Dual Inf.      Time
       0    0.0000000e+00   1.814585e+03   0.000000e+00    286s
    1303    0.0000000e+00   0.000000e+00   0.000000e+00    289s

Root relaxation: objective 0.000000e+00, 1303 iterations, 23.06 seconds

    Nodes    |    Current Node    |     Objective Bounds      |     Work
 Expl Unexpl |  Obj  Depth IntInf | Incumbent    BestBd   Gap | It/Node Time

     0     0    0.00000    0  621          -    0.00000      -     - 3601s

Explored 0 nodes (297134 simplex iterations) in 3601.88 seconds
Thread count was 1 (of 4 available processors)

Time limit reached
Best objective -, best bound 0.000000000000e+00, gap -
Tempo: 3580.94 segundos

Error code = 10004
Var::get
